NAME: cum10.tsp
TYPE: TSP
COMMENT: User-generated TSP file
DIMENSION: 10
EDGE_WEIGHT_TYPE: EUC_2D
NODE_COORD_SECTION
1 4.0 8.0
2 7.0 1.0
3 10.0 8.0
4 10.0 4.0
5 2.0 10.0
6 9.0 8.0
7 5.0 3.0
8 8.0 4.0
9 7.0 3.0
10 10.0 10.0
EOF





